(set-info :source |printed by MathSAT|)
(declare-fun param_k0 () Int)
(declare-fun call_Age.flby () Int)
(declare-fun k () Int)
(declare-fun env () Bool)
(declare-fun call_Age2.flby () Int)
(declare-fun param_q () Bool)
(declare-fun call_Age3.flby () Int)
(declare-fun _OK_ () Bool)
(declare-fun call_Age2.age_of_p () Int)
(declare-fun call_Age3.age_of_p () Int)
(declare-fun param_t () Bool)
(declare-fun call_Age.age_of_p () Int)
(declare-fun flby () Int)
(declare-fun call_Sofar.Sofar () Bool)
(declare-fun call_Sofar.flby () Bool)
(define-fun .def_195 () Bool (= call_Age3.flby call_Age3.age_of_p))
(define-fun .def_193 () Bool (= call_Sofar.flby call_Sofar.Sofar))
(define-fun .def_191 () Bool (= call_Age2.age_of_p call_Age2.flby))
(define-fun .def_189 () Bool (= call_Age.age_of_p call_Age.flby))
(define-fun .def_187 () Bool (= env call_Sofar.Sofar))
(define-fun .def_184 () Bool (= k flby))
(define-fun .def_180 () Bool (and param_t param_q))
(define-fun .def_178 () Bool (<= k call_Age3.age_of_p))
(define-fun .def_179 () Bool (not .def_178))
(define-fun .def_181 () Bool (or .def_179 .def_180))
(define-fun .def_176 () Bool (not env))
(define-fun .def_182 () Bool (or .def_176 .def_181))
(define-fun .def_183 () Bool (= _OK_ .def_182))
(define-fun .def_185 () Bool (and .def_183 .def_184))
(define-fun .def_188 () Bool (and .def_185 .def_187))
(define-fun .def_190 () Bool (and .def_188 .def_189))
(define-fun .def_192 () Bool (and .def_190 .def_191))
(define-fun .def_194 () Bool (and .def_192 .def_193))
(define-fun .def_196 () Bool (and .def_194 .def_195))
(define-fun .def_172 () Bool (= call_Age3.flby 0))
(define-fun .def_168 () Bool (= call_Age2.flby 0))
(define-fun .def_165 () Bool (= param_k0 flby))
(define-fun .def_162 () Bool (= call_Age.flby 0))
(define-fun .def_166 () Bool (and .def_162 .def_165))
(define-fun .def_169 () Bool (and .def_166 .def_168))
(define-fun .def_156 () Bool (<= 1 k))
(define-fun .def_152 () Bool (<= k call_Age.age_of_p))
(define-fun .def_153 () Bool (not .def_152))
(define-fun .def_155 () Bool (or .def_153 param_q))
(define-fun .def_157 () Bool (and .def_155 .def_156))
(define-fun .def_147 () Bool (<= k call_Age2.age_of_p))
(define-fun .def_148 () Bool (not .def_147))
(define-fun .def_150 () Bool (or .def_148 param_t))
(define-fun .def_158 () Bool (and .def_150 .def_157))
(define-fun .def_160 () Bool (= .def_158 call_Sofar.flby))
(define-fun .def_170 () Bool (and .def_160 .def_169))
(define-fun .def_173 () Bool (and .def_170 .def_172))
(define-fun .def_197 () Bool (and .def_173 .def_196))
(assert .def_197)
